# Generated using pymatgen and GALLOP
# GALLOP External Coords = -0.18385415,0.040486302,-0.38562554,-0.25441122,0.20296764,0.3958984,0.3986126,0.88447815,0.9062993,-0.20120785
# GALLOP Internal Coords = -1.2226638,2.9151073,-0.96977633,-1.2061214,-3.0543678,2.103571,3.073857,-3.0323482,1.5650898,-0.0069638384,-0.18316959,-0.057155415,0.27886292
# Profile chisqd = 16.731
data_VerapamilHCl_0005_56.246_chisqd_252_refs_2.4_mins.cif
_symmetry_space_group_name_H-M   P-1
_cell_length_a   7.08991000
_cell_length_b   10.59464000
_cell_length_c   19.20684000
_cell_angle_alpha   100.10680000
_cell_angle_beta   93.73960000
_cell_angle_gamma   101.56100000
_symmetry_Int_Tables_number   2
_chemical_formula_structural   H39C27N2ClO4
_chemical_formula_sum   'H39 C27 N2 Cl1 O4'
_cell_volume   1383.96091643
_cell_formula_units_Z   2
_diffrn_radiation_wavelength   1.54056
_diffrn_radiation_type   'Cu K\a'
loop_
 _symmetry_equiv_pos_site_id
 _symmetry_equiv_pos_as_xyz
  1  'x, y, z'
  2  '-x, -y, -z'
loop_
 _atom_site_type_symbol
 _atom_site_label
 _atom_site_symmetry_multiplicity
 _atom_site_fract_x
 _atom_site_fract_y
 _atom_site_fract_z
 _atom_site_occupancy
  Cl  Cl1  1  -0.18385415  0.04048630  -0.38562554  1.0
  C  C10  1  -0.25441122  0.20296764  0.39589840  1.0
  C  C9  1  -0.30260956  0.08158852  0.43109891  1.0
  C  C11  1  -0.03188017  0.26115358  0.40300199  1.0
  H  H11  1  -0.30068651  0.17292950  0.33961263  1.0
  H  H12  1  -0.32252145  0.26955333  0.41426808  1.0
  N  N1  1  -0.24273241  -0.04085265  0.39255983  1.0
  H  H9  1  -0.44739062  0.05251101  0.43308273  1.0
  H  H10  1  -0.23185967  0.10183463  0.48004496  1.0
  C  C12  1  0.01742101  0.36076021  0.35368624  1.0
  H  H13  1  0.00219581  0.30687410  0.45355529  1.0
  H  H14  1  0.03546000  0.18675879  0.39003736  1.0
  C  C8  1  -0.33167642  -0.07761079  0.31449336  1.0
  C  C21  1  -0.30427694  -0.14817327  0.43354183  1.0
  H  H8  1  -0.10038683  -0.02096812  0.39469311  1.0
  C  C13  1  -0.01637846  0.29150054  0.27497134  1.0
  C  C22  1  0.23322290  0.43925297  0.37172574  1.0
  C  C25  1  -0.10921313  0.45594618  0.36452356  1.0
  C  C7  1  -0.28259066  -0.20835906  0.27955538  1.0
  H  H6  1  -0.26463574  -0.00040229  0.28845987  1.0
  H  H7  1  -0.47579932  -0.07895476  0.31100532  1.0
  H  H24  1  -0.25444904  -0.20851928  0.41386348  1.0
  H  H25  1  -0.25003377  -0.11405009  0.48480353  1.0
  H  H26  1  -0.45232293  -0.17435595  0.42898485  1.0
  C  C14  1  -0.14357638  0.31955203  0.22530219  1.0
  C  C18  1  0.09819070  0.19832462  0.25514486  1.0
  C  C23  1  0.28972584  0.53362536  0.31902555  1.0
  C  C24  1  0.27226979  0.52328229  0.44806808  1.0
  H  H27  1  0.31795508  0.37144232  0.36851987  1.0
  N  N2  1  -0.20759119  0.52924991  0.37499732  1.0
  C  C1  1  -0.35309184  -0.23465702  0.19981766  1.0
  H  H4  1  -0.35762602  -0.27991667  0.30223900  1.0
  H  H5  1  -0.14325619  -0.20286858  0.28691351  1.0
  C  C15  1  -0.16176789  0.25397199  0.15380228  1.0
  H  H15  1  -0.22026423  0.38638783  0.23869894  1.0
  C  C17  1  0.08031088  0.13666895  0.18463036  1.0
  H  H17  1  0.17179886  0.17574418  0.29528910  1.0
  H  H28  1  0.20750588  0.59877563  0.32697108  1.0
  H  H29  1  0.43069798  0.57888430  0.32536799  1.0
  H  H30  1  0.26872647  0.47989064  0.26736054  1.0
  H  H31  1  0.20535004  0.58749634  0.45052299  1.0
  H  H32  1  0.23320371  0.46224222  0.48379976  1.0
  H  H33  1  0.41800666  0.56416273  0.45991755  1.0
  C  C2  1  -0.22740245  -0.18588054  0.15243928  1.0
  C  C6  1  -0.54123998  -0.30769980  0.17485824  1.0
  C  C16  1  -0.04927726  0.16393426  0.13376242  1.0
  H  H16  1  -0.25955853  0.26983055  0.11704198  1.0
  O  O4  1  0.18696773  0.04702577  0.15837757  1.0
  C  C3  1  -0.28420600  -0.21616751  0.07901478  1.0
  H  H1  1  -0.09658535  -0.12747231  0.17268628  1.0
  C  C5  1  -0.59384358  -0.33648479  0.10342818  1.0
  H  H3  1  -0.63537526  -0.34279913  0.21076123  1.0
  O  O3  1  -0.05429609  0.09508769  0.06530169  1.0
  C  C27  1  0.32751948  0.01622358  0.20784682  1.0
  C  C4  1  -0.46500796  -0.29448920  0.05366266  1.0
  H  H2  1  -0.18876252  -0.17922738  0.04680559  1.0
  O  O2  1  -0.77413696  -0.40720278  0.07194412  1.0
  C  C26  1  -0.20960917  0.10277998  0.01462224  1.0
  H  H37  1  0.41954887  0.10196688  0.22868398  1.0
  H  H38  1  0.25711274  -0.02413197  0.24552670  1.0
  H  H39  1  0.39380366  -0.05043033  0.17985319  1.0
  O  O1  1  -0.53056461  -0.33786666  -0.01711047  1.0
  C  C20  1  -0.91016364  -0.45877707  0.11779851  1.0
  H  H34  1  -0.16417082  0.18839386  0.01012015  1.0
  H  H35  1  -0.21846005  0.03684103  -0.03206652  1.0
  H  H36  1  -0.33928394  0.08357091  0.03339121  1.0
  C  C19  1  -0.38530040  -0.32830882  -0.06665561  1.0
  H  H21  1  -0.91164827  -0.53702641  0.11088124  1.0
  H  H22  1  -0.87112886  -0.41443014  0.16907513  1.0
  H  H23  1  -1.04338837  -0.44412577  0.10207528  1.0
  H  H18  1  -0.43813139  -0.39489681  -0.11346167  1.0
  H  H19  1  -0.35993856  -0.23450470  -0.07706589  1.0
  H  H20  1  -0.24992697  -0.33944112  -0.04722878  1.0
